1 -1 -2 0
1 -1 -3 0
1 -4 -5 0
1 4 -6 0
1 7 -6 0
1 -7 -8 0
1 7 -9 0
1 -7 -10 0
1 -7 11 0
1 9 -12 0
1 -9 -7 0
1 9 -4 0
1 -9 13 0
1 9 11 0
1 -11 -14 0
1 11 15 0
1 -11 12 0
1 -11 -7 0
1 11 4 0
1 -11 13 0
1 -3 16 0
1 3 7 0
1 3 -17 0
1 -3 18 0
1 -3 4 0
1 3 -13 0
1 -19 9 0
1 19 20 0
1 12 -5 0
1 12 -6 0
1 12 21 0
1 -12 -10 0
1 12 11 0
1 -22 23 0
1 -10 -12 0
1 -6 -7 0
1 -6 -24 0
1 6 4 0
1 6 -25 0
1 23 -15 0
1 23 12 0
1 23 -26 0
1 23 -4 0
1 -5 -23 0
1 5 -27 0
1 5 17 0
1 -28 29 0
1 28 10 0
1 28 -17 0
1 30 6 0
1 30 -28 0
1 -30 -10 0
1 -31 32 0
1 -31 33 0
1 -31 34 0
1 -31 35 0
1 32 -33 0
1 32 34 0
1 -35 29 0
1 -35 -28 0
1 35 -36 0
1 -35 -37 0
1 29 30 0
1 29 -22 0
1 29 -37 0
1 -34 -32 0
1 -34 -38 0
1 34 -39 0
1 -34 31 0
1 34 22 0
1 34 -37 0
1 33 40 0
1 -33 25 0
1 -41 42 0
1 41 -13 0
1 -43 -42 0
1 -43 -44 0
1 43 45 0
1 -43 -8 0
1 8 42 0
1 -8 -44 0
1 8 46 0
1 -8 -47 0
1 -42 48 0
1 42 -8 0
1 42 2 0
1 -42 18 0
1 -42 20 0
1 46 -2 0
1 -46 -18 0
1 46 20 0
1 49 -50 0
1 -51 -49 0
1 51 -41 0
1 20 21 0
1 20 -47 0
1 20 -52 0
1 20 3 0
1 -21 47 0
1 18 16 0
1 -18 -53 0
1 -16 -45 0
1 16 -46 0
1 -16 18 0
1 -16 54 0
1 16 -3 0
1 -45 15 0
1 -45 -16 0
1 -45 -55 0
1 -45 56 0
1 45 -27 0
1 52 16 0
1 -52 -56 0
1 52 -27 0
1 -44 -57 0
1 -44 -18 0
1 -47 58 0
1 47 -44 0
1 -47 56 0
1 47 20 0
1 -17 5 0
1 17 15 0
1 -17 -59 0
1 17 60 0
1 -17 -28 0
1 -17 52 0
1 17 54 0
1 -17 11 0
1 15 -61 0
1 -15 -17 0
1 -15 -54 0
1 -27 -62 0
1 -27 -61 0
1 27 63 0
1 62 32 0
1 -62 -45 0
1 62 63 0
1 61 -62 0
1 61 15 0
1 -61 -64 0
1 -61 -17 0
1 54 -65 0
1 -54 -66 0
1 -54 40 0
1 -59 27 0
1 59 -67 0
1 24 14 0
1 -24 54 0
1 24 68 0
1 -25 -5 0
1 -25 -6 0
1 25 33 0
1 -25 61 0
1 -25 -24 0
1 25 -23 0
1 25 -54 0
1 25 68 0
1 -69 14 0
1 69 70 0
1 -69 33 0
1 69 -71 0
1 -69 -72 0
1 -69 -54 0
1 -40 -14 0
1 40 -70 0
1 40 33 0
1 -40 -72 0
1 -40 63 0
1 40 26 0
1 -40 68 0
1 -63 -73 0
1 -63 -39 0
1 63 9 0
1 14 73 0
1 14 63 0
1 -14 -27 0
1 -14 74 0
1 -14 75 0
1 14 37 0
1 -72 62 0
1 72 73 0
1 -72 69 0
1 -72 24 0
1 72 66 0
1 72 -40 0
1 -68 -62 0
1 68 -69 0
1 68 -24 0
1 -68 -74 0
1 -39 -14 0
1 -39 -76 0
1 -39 33 0
1 -39 -63 0
1 -39 34 0
1 -39 35 0
1 39 -37 0
1 37 -76 0
1 -37 -33 0
1 -37 -39 0
1 -37 26 0
1 -37 -77 0
1 -78 -26 0
1 78 -36 0
1 75 78 0
1 75 26 0
1 75 79 0
1 -77 -80 0
1 -77 -78 0
1 77 81 0
1 -77 -75 0
1 77 40 0
1 70 -6 0
1 -70 -77 0
1 -70 -37 0
1 26 76 0
1 26 82 0
1 26 -83 0
1 -26 -78 0
1 -26 74 0
1 -76 82 0
1 76 73 0
1 76 39 0
1 -76 -69 0
1 76 -84 0
1 -76 -37 0
1 -85 36 0
1 81 85 0
1 81 -79 0
1 -81 -74 0
1 -80 -86 0
1 87 -70 0
1 87 86 0
1 -87 -79 0
1 87 36 0
1 36 86 0
1 36 87 0
1 -36 -35 0
1 -79 -88 0
1 -79 82 0
1 79 -89 0
1 -79 -87 0
1 79 -34 0
1 90 -88 0
1 90 91 0
1 -90 85 0
1 90 78 0
1 -90 -75 0
1 92 -93 0
1 94 -93 0
1 95 -96 0
1 -95 -97 0
1 95 98 0
1 95 -43 0
1 -95 -99 0
1 -96 -93 0
1 -96 99 0
1 96 98 0
1 -96 100 0
1 98 53 0
1 98 -95 0
1 -101 -98 0
1 -101 -53 0
1 101 102 0
1 -101 -92 0
1 93 92 0
1 -102 -49 0
1 102 -50 0
1 -102 -103 0
1 102 51 0
1 -102 98 0
1 -50 -101 0
1 -50 -97 0
1 50 98 0
1 50 -99 0
1 -53 104 0
1 -53 105 0
1 106 -107 0
1 106 -16 0
1 -106 101 0
1 106 -97 0
1 106 -53 0
1 -106 99 0
1 99 96 0
1 99 108 0
1 99 -109 0
1 99 110 0
1 99 53 0
1 99 102 0
1 -99 95 0
1 -97 48 0
1 -97 96 0
1 97 111 0
1 97 109 0
1 -97 53 0
1 97 -95 0
1 100 50 0
1 103 -106 0
1 103 50 0
1 -103 -96 0
1 103 53 0
1 -103 -95 0
1 110 -107 0
1 -110 42 0
1 -110 46 0
1 -110 47 0
1 -48 97 0
1 -48 46 0
1 -48 -110 0
1 -48 99 0
1 -109 -58 0
1 -109 -112 0
1 -109 -47 0
1 109 -99 0
1 -58 113 0
1 58 -44 0
1 58 112 0
1 58 -114 0
1 58 -109 0
1 -58 -47 0
1 107 115 0
1 -107 -110 0
1 112 116 0
1 112 -107 0
1 112 -58 0
1 -105 104 0
1 -105 -115 0
1 -105 110 0
1 105 117 0
1 -56 116 0
1 56 107 0
1 -56 -118 0
1 -56 -44 0
1 -56 45 0
1 56 -59 0
1 -56 -114 0
1 56 119 0
1 -116 113 0
1 -116 44 0
1 116 -45 0
1 116 -59 0
1 116 52 0
1 116 67 0
1 -71 -113 0
1 71 -57 0
1 71 -112 0
1 71 120 0
1 121 -107 0
1 -121 -118 0
1 121 55 0
1 121 71 0
1 -121 -112 0
1 121 119 0
1 -121 -40 0
1 -113 42 0
1 -113 -122 0
1 -113 -123 0
1 113 -121 0
1 -119 113 0
1 119 124 0
1 -119 125 0
1 -119 -56 0
1 119 123 0
1 118 -124 0
1 -118 -71 0
1 -118 56 0
1 118 126 0
1 -118 -127 0
1 118 121 0
1 114 -116 0
1 114 124 0
1 -114 -71 0
1 -114 -121 0
1 128 115 0
1 128 -119 0
1 -128 -129 0
1 -128 -68 0
1 -66 57 0
1 -66 -61 0
1 66 127 0
1 -125 57 0
1 -125 72 0
1 -125 -119 0
1 -125 129 0
1 123 57 0
1 123 -55 0
1 -123 -130 0
1 -55 -131 0
1 -55 73 0
1 55 125 0
1 -55 121 0
1 -120 71 0
1 -120 84 0
1 120 -123 0
1 57 -44 0
1 57 -132 0
1 -57 -133 0
1 -57 124 0
1 57 -134 0
1 -57 135 0
1 -57 -123 0
1 -129 131 0
1 -129 124 0
1 129 -134 0
1 129 136 0
1 129 -66 0
1 129 -121 0
1 -73 14 0
1 -73 -76 0
1 -73 120 0
1 -73 -55 0
1 -73 124 0
1 73 -64 0
1 73 63 0
1 73 -74 0
1 73 -65 0
1 -74 -73 0
1 -74 64 0
1 74 -63 0
1 74 120 0
1 74 135 0
1 74 137 0
1 -74 65 0
1 74 -68 0
1 83 -55 0
1 -83 -64 0
1 83 -138 0
1 84 -139 0
1 84 -55 0
1 -84 -26 0
1 -84 137 0
1 64 -140 0
1 -64 89 0
1 64 74 0
1 64 123 0
1 64 -65 0
1 65 140 0
1 65 88 0
1 -65 83 0
1 65 74 0
1 -65 54 0
1 130 -131 0
1 130 -59 0
1 -130 123 0
1 -137 -141 0
1 137 -142 0
1 137 84 0
1 137 -67 0
1 82 70 0
1 82 64 0
1 -82 -138 0
1 82 79 0
1 143 90 0
1 -143 -64 0
1 -143 -26 0
1 -88 -144 0
1 -88 -90 0
1 88 138 0
1 88 -145 0
1 -88 -65 0
1 89 -139 0
1 -89 -146 0
1 -89 -64 0
1 89 142 0
1 -147 148 0
1 147 83 0
1 -147 -149 0
1 -147 143 0
1 -147 -84 0
1 -139 -150 0
1 -139 147 0
1 139 -143 0
1 139 -84 0
1 138 140 0
1 138 82 0
1 138 -83 0
1 -138 -151 0
1 138 -152 0
1 -138 -143 0
1 -138 -153 0
1 -138 154 0
1 155 152 0
1 -155 -89 0
1 -148 140 0
1 148 146 0
1 148 -150 0
1 148 -145 0
1 -148 -156 0
1 -150 -146 0
1 -150 86 0
1 150 152 0
1 -150 79 0
1 150 -36 0
1 -157 -144 0
1 157 156 0
1 157 -158 0
1 -157 -154 0
1 159 139 0
1 159 -151 0
1 -159 145 0
1 156 148 0
1 156 -88 0
1 156 -159 0
1 156 -150 0
1 -156 -160 0
1 156 -157 0
1 144 -150 0
1 144 -89 0
1 144 156 0
1 144 -160 0
1 -145 -146 0
1 -145 -149 0
1 145 89 0
1 -145 26 0
1 -145 -161 0
1 -146 -76 0
1 146 -145 0
1 -160 144 0
1 162 91 0
1 162 -149 0
1 162 163 0
1 164 -165 0
1 164 -158 0
1 164 -161 0
1 -166 -156 0
1 163 -166 0
1 163 -36 0
1 -163 -160 0
1 165 163 0
1 165 86 0
1 -165 -162 0
1 -165 -159 0
1 158 91 0
1 158 166 0
1 158 -162 0
1 91 -159 0
1 -91 164 0
1 91 -160 0
1 -91 -157 0
1 -108 167 0
1 108 -103 0
1 108 -56 0
1 -167 104 0
1 168 -169 0
1 -168 170 0
1 -168 104 0
1 -168 171 0
1 168 -105 0
1 -117 111 0
1 117 -168 0
1 -117 172 0
1 -117 171 0
1 -173 -174 0
1 -173 175 0
1 -173 -108 0
1 173 -117 0
1 169 101 0
1 169 -174 0
1 172 -176 0
1 -177 -93 0
1 -177 -178 0
1 -177 -168 0
1 115 -118 0
1 115 -169 0
1 -115 105 0
1 127 111 0
1 127 -114 0
1 -174 -125 0
1 174 179 0
1 174 114 0
1 -174 -180 0
1 -126 118 0
1 -126 -181 0
1 171 -132 0
1 171 -124 0
1 -171 99 0
1 -111 132 0
1 -111 -174 0
1 111 182 0
1 -111 -168 0
1 111 -126 0
1 -183 126 0
1 -183 184 0
1 183 127 0
1 -170 103 0
1 -170 -168 0
1 124 -185 0
1 -124 -181 0
1 124 114 0
1 -124 171 0
1 135 -185 0
1 -135 129 0
1 -135 -171 0
1 -132 -186 0
1 132 -129 0
1 136 -186 0
1 -136 -132 0
1 136 181 0
1 -136 -187 0
1 -136 129 0
1 185 188 0
1 -185 -132 0
1 -185 124 0
1 -185 -142 0
1 185 136 0
1 -185 -135 0
1 181 -132 0
1 -181 -126 0
1 -180 189 0
1 -180 190 0
1 179 188 0
1 -179 191 0
1 -179 192 0
1 179 126 0
1 179 180 0
1 131 186 0
1 -131 -129 0
1 -131 -120 0
1 134 185 0
1 -134 -186 0
1 -134 131 0
1 134 57 0
1 134 -181 0
1 134 137 0
1 141 -185 0
1 141 -193 0
1 141 -122 0
1 -141 -133 0
1 -141 130 0
1 141 187 0
1 -142 185 0
1 142 186 0
1 142 -194 0
1 142 -195 0
1 -122 -131 0
1 122 -152 0
1 122 -134 0
1 -122 187 0
1 187 -141 0
1 -187 134 0
1 187 -136 0
1 186 142 0
1 186 196 0
1 196 188 0
1 196 197 0
1 -196 134 0
1 -140 -64 0
1 -140 195 0
1 -152 -122 0
1 152 64 0
1 -152 -138 0
1 -152 -198 0
1 -154 -199 0
1 -154 194 0
1 -154 200 0
1 154 138 0
1 -154 187 0
1 154 195 0
1 154 157 0
1 -151 -122 0
1 -151 -200 0
1 -151 -201 0
1 151 197 0
1 151 202 0
1 194 -203 0
1 -194 151 0
1 194 154 0
1 -203 141 0
1 203 -142 0
1 -203 120 0
1 -203 -161 0
1 -133 -140 0
1 133 -141 0
1 133 195 0
1 -133 -154 0
1 -195 141 0
1 195 -133 0
1 195 -204 0
1 195 -152 0
1 -195 -142 0
1 -153 194 0
1 -153 -149 0
1 -153 -201 0
1 153 -203 0
1 149 139 0
1 149 200 0
1 -149 203 0
1 161 -146 0
1 -161 -201 0
1 -161 205 0
1 -206 146 0
1 -206 -194 0
1 206 207 0
1 206 201 0
1 206 -203 0
1 201 -64 0
1 201 -151 0
1 -201 -153 0
1 201 -154 0
1 202 201 0
1 202 153 0
1 -200 206 0
1 -205 -206 0
1 -205 -149 0
1 205 -154 0
1 -190 -131 0
1 190 178 0
1 -190 -170 0
1 190 -192 0
1 -190 176 0
1 -190 -180 0
1 -192 -170 0
1 192 134 0
1 -193 208 0
1 193 -175 0
1 -193 -180 0
1 -209 -178 0
1 -209 142 0
1 -209 -176 0
1 -209 184 0
1 175 -210 0
1 175 -198 0
1 -175 192 0
1 -210 199 0
1 -210 188 0
1 210 -197 0
1 -176 193 0
1 178 176 0
1 -188 186 0
1 -188 -181 0
1 -188 184 0
1 -188 211 0
1 -198 -185 0
1 -198 -210 0
1 -198 152 0
1 -198 175 0
1 -198 -211 0
1 199 -212 0
1 -199 208 0
1 -199 -197 0
1 199 -196 0
1 199 154 0
1 -197 189 0
1 197 208 0
1 197 -191 0
1 -211 199 0
1 211 -193 0
1 -211 204 0
1 211 209 0
1 -211 -213 0
1 182 -207 0
1 182 197 0
1 182 209 0
1 182 213 0
1 -184 -193 0
1 -184 209 0
1 208 -188 0
1 204 189 0
1 204 -186 0
1 213 -189 0
1 213 182 0
1 213 214 0
1 207 189 0
1 -207 133 0
1 -214 212 0
1 214 -197 0
1 -189 197 0
1 191 -204 0
